N = 2;
Capacity = 7;
ItemsPerCustomer = [3, 7];
maxItemsPerCustomer = 7;
binCapacity = 50;
SizesOfItems = [|
  17, 17, 14, 0, 0, 0, 0
| 38, 33, 33, 31, 27, 13, 12
|];
Distance = [|
  0, 52, 45
| 52, 0, 7
| 45, 7, 0
|];
